RT is False
Default write of storage_offers_DA.csv just to have a file (but constraint should be inactive)
Reading model...
...model read.
creating competitive generators file...
...competitive generators recorded.
Loading data...
.. day-ahead data with real-time VRE data read.
Compiling instance...
...instance created.
Creating Offer Mitigation (model will solve as dispatch if TRUE)...
Solving...

Welcome to IBM(R) ILOG(R) CPLEX(R) Interactive Optimizer 12.9.0.0
  with Simplex, Mixed Integer & Barrier Optimizers
5725-A06 5725-A29 5724-Y48 5724-Y49 5724-Y54 5724-Y55 5655-Y21
Copyright IBM Corp. 1988, 2019.  All Rights Reserved.

Type 'help' for a list of available commands.
Type 'help' followed by a command name for more
information on commands.

CPLEX> Logfile 'cplex.log' closed.
Logfile 'C:\Users\llavin\Desktop\test919\logs\tmprexjhpsk.cplex.log' open.
CPLEX> New value for parallel optimization mode: -1
CPLEX> New value for mixed integer optimality gap tolerance: 0.01
CPLEX> New value for integrality tolerance: 1e-09
CPLEX> New value for feasibility tolerance: 0.01
CPLEX> New value for deterministic time limit in ticks: 75000
CPLEX> Problem 'C:\Users\llavin\Desktop\test919\logs\tmpfrq7xtms.pyomo.lp' read.
Read time = 0.05 sec. (3.04 ticks)
CPLEX> Problem name         : C:\Users\llavin\Desktop\test919\logs\tmpfrq7xtms.pyomo.lp
Objective sense      : Minimize
Variables            :   26081  [Nneg: 1,  Box: 21616,  Free: 4464]
Objective nonzeros   :    2496
Linear constraints   :   27515  [Less: 14006,  Greater: 4416,  Equal: 9093]
  Nonzeros           :   89219
  RHS nonzeros       :   12270

Variables            : Min LB: -5000.000        Max UB: 1000000.       
Objective nonzeros   : Min   : 15.73158         Max   : 124.0997       
Linear constraints   :
  Nonzeros           : Min   : 0.8500000        Max   : 3000.000       
  RHS nonzeros       : Min   : 0.4083333        Max   : 5000.000       
CPLEX> CPXPARAM_Parallel                                -1
CPXPARAM_Simplex_Tolerances_Feasibility          0.01
CPXPARAM_DetTimeLimit                            75000
CPXPARAM_MIP_Tolerances_MIPGap                   0.01
CPXPARAM_MIP_Tolerances_Integrality              1.0000000000000001e-09
Parallel mode: opportunistic, using up to 32 threads for concurrent optimization.
Tried aggregator 1 time.
LP Presolve eliminated 21377 rows and 15487 columns.
Aggregator did 747 substitutions.
Reduced LP has 5391 rows, 9847 columns, and 31786 nonzeros.
Presolve time = 0.05 sec. (30.20 ticks)
Symmetry aggregator did 5563 additional substitutions.

Iteration log . . .
Iteration:     1   Dual objective     =             0.000000
Perturbation started.
Iteration:   101   Dual objective     =             0.000000
Iteration:   329   Dual objective     =             1.166435
Iteration:   599   Dual objective     =             1.788912
Iteration:   854   Dual objective     =             1.929091
Iteration:  1058   Dual objective     =             2.041322
Iteration:  1337   Dual objective     =             2.092151
Iteration:  1597   Dual objective     =             2.124013
Iteration:  1820   Dual objective     =        129335.878914
Iteration:  2028   Dual objective     =        480019.398239
Iteration:  2235   Dual objective     =        554688.460988
Iteration:  2422   Dual objective     =        558247.914709
Iteration:  2722   Dual objective     =        560182.041264
Iteration:  3125   Dual objective     =        560296.825262
Removing perturbation.
Dual superbasis not built.
Using devex.

Primal simplex solved model.


Primal simplex - Optimal:  Objective =  5.6029459552e+05
Solution time =    0.17 sec.  Iterations = 1762 (1060)
Deterministic time = 81.00 ticks  (470.94 ticks/sec)

CPLEX> Solution written to file 'C:\Users\llavin\Desktop\test919\logs\tmplp8s_i8z.cplex.sol'.
CPLEX> Exporting results... 
...storage offer mitigation file created
Converting model to MPEC...
...converted
NOTE: initial MIP solve with only storage competitive to get feasible solution
Solving...

Welcome to IBM(R) ILOG(R) CPLEX(R) Interactive Optimizer 12.9.0.0
  with Simplex, Mixed Integer & Barrier Optimizers
5725-A06 5725-A29 5724-Y48 5724-Y49 5724-Y54 5724-Y55 5655-Y21
Copyright IBM Corp. 1988, 2019.  All Rights Reserved.

Type 'help' for a list of available commands.
Type 'help' followed by a command name for more
information on commands.

CPLEX> Logfile 'cplex.log' closed.
Logfile 'C:\Users\llavin\Desktop\test919\logs\tmpr6ey1xxg.cplex.log' open.
CPLEX> New value for parallel optimization mode: -1
CPLEX> New value for mixed integer optimality gap tolerance: 0.01
CPLEX> New value for integrality tolerance: 1e-09
CPLEX> New value for feasibility tolerance: 0.01
CPLEX> New value for deterministic time limit in ticks: 75000
CPLEX> Problem 'C:\Users\llavin\Desktop\test919\logs\tmp83fs05p_.pyomo.lp' read.
Read time = 0.25 sec. (14.78 ticks)
CPLEX> Problem name         : C:\Users\llavin\Desktop\test919\logs\tmp83fs05p_.pyomo.lp
Objective sense      : Maximize
Variables            :   53805  [Nneg: 1,  Box: 22000,  Free: 4464,
                                 Binary: 27340]
Objective nonzeros   :    9028
Linear constraints   :  123205  [Less: 41346,  Greater: 59096,  Equal: 22763]
  Nonzeros           :  291752
  RHS nonzeros       :   67488

Variables            : Min LB: -5000.000        Max UB: 1000000.       
Objective nonzeros   : Min   : 0.4083333        Max   : 2500.000       
Linear constraints   :
  Nonzeros           : Min   : 0.4083333        Max   : 1000000.       
  RHS nonzeros       : Min   : 0.4083333        Max   : 1000000.       
CPLEX> CPXPARAM_Parallel                                -1
CPXPARAM_Simplex_Tolerances_Feasibility          0.01
CPXPARAM_DetTimeLimit                            75000
CPXPARAM_MIP_Tolerances_MIPGap                   0.01
CPXPARAM_MIP_Tolerances_Integrality              1.0000000000000001e-09
Tried aggregator 3 times.
MIP Presolve eliminated 88758 rows and 19082 columns.
MIP Presolve added 3344 rows and 0 columns.
MIP Presolve modified 24788 coefficients.
Aggregator did 12920 substitutions.
Reduced MIP has 24871 rows, 21247 columns, and 70952 nonzeros.
Reduced MIP has 8381 binaries, 0 generals, 0 SOSs, and 0 indicators.
Presolve time = 0.30 sec. (175.91 ticks)
Probing fixed 374 vars, tightened 2811 bounds.
Probing time = 1.20 sec. (885.11 ticks)
Tried aggregator 2 times.
MIP Presolve eliminated 843 rows and 748 columns.
MIP Presolve modified 2212 coefficients.
Aggregator did 40 substitutions.
Reduced MIP has 23988 rows, 20459 columns, and 68398 nonzeros.
Reduced MIP has 8007 binaries, 0 generals, 0 SOSs, and 0 indicators.
Presolve time = 0.11 sec. (66.96 ticks)
Probing time = 0.03 sec. (15.94 ticks)
Clique table members: 6394.
MIP emphasis: balance optimality and feasibility.
MIP search method: dynamic search.
Parallel mode: opportunistic, using up to 32 threads.
Root relaxation solution time = 0.47 sec. (640.49 ticks)

        Nodes                                         Cuts/
   Node  Left     Objective  IInf  Best Integer    Best Bound    ItCnt     Gap

      0     0      218.0347   892                    218.0347     4392         
      0     0      217.8860     8                 Flowcuts: 1     4394         
      0     0      211.7496     7                     Cuts: 3     4397         
      0     6    infeasible                          211.7496     4410         
Elapsed time = 8.39 sec. (4968.20 ticks, tree = 0.02 MB, solutions = 0)
    310   151    infeasible                          211.7496     4982         
*   591   236      integral     0      211.7496      211.7496     6856    0.00%
    598   260      -19.1396     4      211.7496      211.7496     6923    0.00%
*   614   267      integral     0      211.7496      211.7496     7008    0.00%

Cover cuts applied:  2
Flow cuts applied:  2
Gomory fractional cuts applied:  1

Root node processing (before b&c):
  Real time             =    7.63 sec. (4963.78 ticks)
Parallel b&c, 32 threads:
  Real time             =    3.59 sec. (621.79 ticks)
  Sync time (average)   =    0.54 sec.
  Wait time (average)   =    0.00 sec.
                          ------------
Total (root+branch&cut) =   11.22 sec. (5585.56 ticks)

Solution pool: 3 solutions saved.

MIP - Integer optimal solution:  Objective =  2.1174963960e+02
Solution time =   11.23 sec.  Iterations = 7986  Nodes = 650
Deterministic time = 5585.72 ticks  (497.17 ticks/sec)

CPLEX> Incumbent solution written to file 'C:\Users\llavin\Desktop\test919\logs\tmp13t5znd6.cplex.sol'.
CPLEX> NOTE: no warmstart specified for MIP iteration, default behavior is true
NOTE: resolving with all competitive generators using storage-only solution to warmstart
Solving...

Welcome to IBM(R) ILOG(R) CPLEX(R) Interactive Optimizer 12.9.0.0
  with Simplex, Mixed Integer & Barrier Optimizers
5725-A06 5725-A29 5724-Y48 5724-Y49 5724-Y54 5724-Y55 5655-Y21
Copyright IBM Corp. 1988, 2019.  All Rights Reserved.

Type 'help' for a list of available commands.
Type 'help' followed by a command name for more
information on commands.

CPLEX> Logfile 'cplex.log' closed.
Logfile 'C:\Users\llavin\Desktop\test919\logs\tmprntcux18.cplex.log' open.
CPLEX> New value for parallel optimization mode: -1
CPLEX> New value for mixed integer optimality gap tolerance: 0.01
CPLEX> New value for integrality tolerance: 1e-09
CPLEX> New value for feasibility tolerance: 0.01
CPLEX> New value for deterministic time limit in ticks: 75000
CPLEX> Problem 'C:\Users\llavin\Desktop\test919\logs\tmpf4t0xe5h.pyomo.lp' read.
Read time = 0.23 sec. (14.81 ticks)
CPLEX> MIP start file 'C:\Users\llavin\Desktop\test919\logs\tmpu9c3co8n.cplex.mst' read.
CPLEX> Problem name         : C:\Users\llavin\Desktop\test919\logs\tmpf4t0xe5h.pyomo.lp
Objective sense      : Maximize
Variables            :   54525  [Nneg: 1,  Box: 22720,  Free: 4464,
                                 Binary: 27340]
Objective nonzeros   :    9724
Linear constraints   :  123205  [Less: 41346,  Greater: 59096,  Equal: 22763]
  Nonzeros           :  291752
  RHS nonzeros       :   67488

Variables            : Min LB: -5000.000        Max UB: 1000000.       
Objective nonzeros   : Min   : 0.4083333        Max   : 2500.000       
Linear constraints   :
  Nonzeros           : Min   : 0.4083333        Max   : 1000000.       
  RHS nonzeros       : Min   : 0.4083333        Max   : 1000000.       
CPLEX> CPXPARAM_Parallel                                -1
CPXPARAM_Simplex_Tolerances_Feasibility          0.01
CPXPARAM_DetTimeLimit                            75000
CPXPARAM_MIP_Tolerances_MIPGap                   0.01
CPXPARAM_MIP_Tolerances_Integrality              1.0000000000000001e-09
Warning:  No solution found from 1 MIP starts.
Retaining values of one MIP start for possible repair.
Tried aggregator 3 times.
MIP Presolve eliminated 88758 rows and 19802 columns.
MIP Presolve added 3344 rows and 0 columns.
MIP Presolve modified 24788 coefficients.
Aggregator did 12920 substitutions.
Reduced MIP has 24871 rows, 21247 columns, and 70952 nonzeros.
Reduced MIP has 8381 binaries, 0 generals, 0 SOSs, and 0 indicators.
Presolve time = 0.28 sec. (176.27 ticks)
Probing fixed 374 vars, tightened 2811 bounds.
Probing time = 1.20 sec. (885.11 ticks)
Tried aggregator 2 times.
MIP Presolve eliminated 843 rows and 748 columns.
MIP Presolve modified 2212 coefficients.
Aggregator did 40 substitutions.
Reduced MIP has 23988 rows, 20459 columns, and 68398 nonzeros.
Reduced MIP has 8007 binaries, 0 generals, 0 SOSs, and 0 indicators.
Presolve time = 0.11 sec. (66.98 ticks)
Probing time = 0.05 sec. (15.94 ticks)
Clique table members: 6394.
MIP emphasis: balance optimality and feasibility.
MIP search method: dynamic search.
Parallel mode: opportunistic, using up to 32 threads.
Root relaxation solution time = 0.47 sec. (628.39 ticks)

        Nodes                                         Cuts/
   Node  Left     Objective  IInf  Best Integer    Best Bound    ItCnt     Gap

      0     0    53834.6838   964                  53834.6838     4337         
      0     0    53810.9225   712                   Cuts: 779     4695         
      0     0    53791.6737   528                   Cuts: 656     4947         
      0     0    53785.4127   432                   Cuts: 310     5081         
      0     0    53779.8375   383                   Cuts: 122     5144         
      0     0    53779.8375   379                   Cuts: 101     5162         
      0     0    53779.1045    37                     Cuts: 2     5165         
      0     0    53779.1045    37                 Flowcuts: 6     5166         
Repair heuristic found nothing.
      0    11    51991.7050    15                    Cuts: 18     5263         
Elapsed time = 10.84 sec. (6430.50 ticks, tree = 0.02 MB, solutions = 0)
    657   212    52984.4527     4                  53726.1739     6424         
   1065   910    51822.2891     7                  53726.1739    11004         
   1481  1083    15958.5188     7                  53726.1739    13209         
   1882  1336    53208.7790     8                  53726.1739    15592         
*  2217  1502      integral     0    43340.3156    53726.1739    18137   23.96%
   2251  1714    53160.7882    30    43340.3156    53726.1739    22668   23.96%
   2561  1647    53491.1994    10    43340.3156    53726.1739    22522   23.96%
   2972  1880    52900.9109    11    43340.3156    53726.1739    26827   23.96%
   3424  1841    44575.9741     5    43340.3156    53726.1739    26106   23.96%
   3967  2262    53201.4993     7    43340.3156    53726.1739    29106   23.96%
   6237  3039    52572.8807    12    43340.3156    53726.1739    33409   23.96%
Elapsed time = 23.89 sec. (9534.22 ticks, tree = 20.05 MB, solutions = 2)
   8361  5694    44152.0330    16    43340.3156    53726.1739    47201   23.96%
   9418  3767    51780.3963     6    43340.3156    53726.1739    38005   23.96%
   9868  5596    45215.0667     7    43340.3156    53726.1739    46265   23.96%
  10112  4159    51493.2476     4    43340.3156    53726.1739    39806   23.96%
  10272  5568    48225.9713     4    43340.3156    53726.1739    46309   23.96%
  10366  5699    51758.8817     4    43340.3156    53726.1739    47246   23.96%
  10370  7407    50193.7033   195    43340.3156    53726.1739    63510   23.96%
  12544  1131    53574.2960   130    43340.3156    53701.4306    65945   23.91%
  14486  1614    53533.6239   146    43340.3156    53701.4306    67441   23.91%
  16562  3537    46299.6645   104    43340.3156    53701.4306    76107   23.91%
Elapsed time = 56.64 sec. (23966.56 ticks, tree = 26.49 MB, solutions = 2)
  16872  6218    53448.4000   104    43340.3156    53701.4306    90091   23.91%
* 17504  6157      integral     0    53372.3808    53650.6152    89776    0.52%

Clique cuts applied:  26
Cover cuts applied:  12
Implied bound cuts applied:  18
Flow cuts applied:  446
Mixed integer rounding cuts applied:  16
Gomory fractional cuts applied:  46

Root node processing (before b&c):
  Real time             =    9.02 sec. (6378.80 ticks)
Parallel b&c, 32 threads:
  Real time             =   49.58 sec. (19778.51 ticks)
  Sync time (average)   =    1.34 sec.
  Wait time (average)   =    0.17 sec.
                          ------------
Total (root+branch&cut) =   58.59 sec. (26157.30 ticks)

Solution pool: 3 solutions saved.

MIP - Integer optimal, tolerance (0.01/1e-06):  Objective =  5.3372380774e+04
Current MIP best bound =  5.3650615171e+04 (gap = 278.234, 0.52%)
Solution time =   58.64 sec.  Iterations = 93006  Nodes = 18033 (2369)
Deterministic time = 26157.46 ticks  (446.06 ticks/sec)

CPLEX> Incumbent solution written to file 'C:\Users\llavin\Desktop\test919\logs\tmp0b33ig31.cplex.sol'.
CPLEX> Exporting results... 
